(set-logic ALL)
(declare-fun i1 () Int)
(declare-fun it1907 () Int)
(declare-fun it1908 () Int)
(declare-fun i2 () Int)
(declare-fun i3 () Int)
(declare-fun it1909 () Int)
(declare-fun i4 () Int)
(declare-fun it1910 () Int)
(declare-fun it1911 () Int)
(declare-fun i5 () Int)
(declare-fun it1912 () Int)
(declare-fun i6 () Int)
(declare-fun i7 () Int)
(declare-fun it1913 () Int)
(declare-fun it1921 () Int)
(declare-fun it1922 () Int)
(declare-fun it1923 () Int)
(declare-fun it1924 () Int)
(declare-fun it1925 () Int)
(declare-fun it1926 () Int)
(declare-fun it1927 () Int)
(declare-fun it1928 () Int)
(declare-fun it1929 () Int)
(declare-fun it1930 () Int)
(declare-fun it1931 () Int)
(declare-fun it1932 () Int)
(declare-fun it1933 () Int)
(declare-fun it1934 () Int)
(declare-fun it1935 () Int)
(declare-fun it1936 () Int)
(declare-fun it1937 () Int)
(declare-fun it1938 () Int)
(declare-fun it1939 () Int)
(declare-fun it1940 () Int)
(declare-fun it1941 () Int)
(declare-fun it316 () Int)
(assert (= (+ i1 (- 1)) 0))
(assert (= (+ it1907 (- 5)) 0))
(assert (= (+ (* i2 (- 1)) it1908 (- 4)) 0))
(assert (= (+ it1909 (* i3 (- 1))) 0))
(assert (= (+ it1910 (* i4 (- 1))) 0))
(assert (= (+ (* i5 (- 1)) it1911) 0))
(assert (= (+ (* i6 (- 1)) it1912) 0))
(assert (= (+ it1913 (* i7 (- 1))) 0))
(assert (and (> (+ it1910 (- 2)) 0) (= (+ it1907 (- 5)) 0)))
(assert (= (+ it1921 (- 18)) 0))
(assert (= (+ it1922 (* it1908 (- 1)) (- 12)) 0))
(assert (= (+ (* it1909 (- 1)) it1923) 0))
(assert (= (+ (* it1910 (- 1)) it1924) 0))
(assert (= (+ it1925 (* it1911 (- 1))) 0))
(assert (= it1926 0))
(assert (= (+ (* it1913 (- 1)) it1927) 0))
(assert (let ((a!1 (>= (+ (+ (* it1926 (- 1)) it1924) (- 2)) 0))
      (a!2 (>= (+ (+ (* it1926 (- 1)) it1924) (- 3)) 0))
      (a!3 (> (+ (+ (* it1926 (- 1)) it1924) (- 3)) 0))
      (a!4 (>= (+ (+ (* it1926 (- 1)) it1924) (- 4)) 0)))
  (and (> 1 0)
       (>= (+ (* it1921 (- 1)) 18) 0)
       a!1
       (> (+ it1926 it1924 3) 0)
       (>= (+ it1921 (- 18)) 0)
       a!2
       a!3
       a!4)))
(assert (= (+ (* it1921 (- 1)) it1928) 0))
(assert (= (+ (* it1922 (- 1)) it1929 (* it1926 11) (* it1924 (- 11)) 33) 0))
(assert (= (+ it1930 (* it1924 (- 1)) 3) 0))
(assert (= (+ (* it1924 (- 1)) it1931) 0))
(assert (= (+ it1932 (* it1924 (- 1))) 0))
(assert (= (+ it1933 (* it1924 (- 1)) 3) 0))
(assert (= (+ it1934 (- 1)) 0))
(assert (and (<= (+ it1933 (* it1931 (- 1)) 2) 0) (= (+ it1928 (- 18)) 0)))
(assert (= (+ it1935 (- 20)) 0))
(assert (= (+ (* it1929 (- 1)) it1936 (- 2)) 0))
(assert (= (+ (* it1930 (- 1)) it1937) 0))
(assert (= (+ it1938 (* it1931 (- 1))) 0))
(assert (= it1939 0))
(assert (= (+ (* it1933 (- 1)) it1940) 0))
(assert (= (+ it1941 (* it1934 (- 1))) 0))
(assert (let ((a!1 (+ (+ 0 it1938)
              (* (exp 2 it316) (+ 0 (- 2)))
              (+ 0 (* it1940 (- 1)))
              (* (exp 2 (+ it316 (- 1))) (+ 0 it1939) (+ 0 (- 2)))
              (+ 0 1))))
  (and (>= (+ (* it1935 (- 1)) 20) 0)
       (> (+ it1938 (* it1939 (- 2)) (* it1940 (- 1)) (- 3)) 0)
       (>= (+ it1938 (* it1939 (- 2)) (* it1940 (- 1)) (- 3)) 0)
       (>= a!1 (+ 0 0))
       (>= (+ it1935 (- 20)) 0)
       (> a!1 (+ 0 0))
       (>= (+ it316 (- 1)) 0))))
(check-sat)
